p cnf 206 4356340
1 2 3 4 5 6 7 8 9 0
-1 -2 0
-1 -3 0
-1 -4 0
-1 -5 0
-1 -6 0
-1 -7 0
-1 -8 0
-1 -9 0
-2 -3 0
-2 -4 0
-2 -5 0
-2 -6 0
-2 -7 0
-2 -8 0
-2 -9 0
-3 -4 0
-3 -5 0
-3 -6 0
-3 -7 0
-3 -8 0
-3 -9 0
-4 -5 0
-4 -6 0
-4 -7 0
-4 -8 0
-4 -9 0
-5 -6 0
-5 -7 0
-5 -8 0
-5 -9 0
-6 -7 0
-6 -8 0
-6 -9 0
-7 -8 0
-7 -9 0
-8 -9 0
10 11 12 13 14 15 16 17 18 0
-10 -11 0
-10 -12 0
-10 -13 0
-10 -14 0
-10 -15 0
-10 -16 0
-10 -17 0
-10 -18 0
-11 -12 0
-11 -13 0
-11 -14 0
-11 -15 0
-11 -16 0
-11 -17 0
-11 -18 0
-12 -13 0
-12 -14 0
-12 -15 0
-12 -16 0
-12 -17 0
-12 -18 0
-13 -14 0
-13 -15 0
-13 -16 0
-13 -17 0
-13 -18 0
-14 -15 0
-14 -16 0
-14 -17 0
-14 -18 0
-15 -16 0
-15 -17 0
-15 -18 0
-16 -17 0
-16 -18 0
-17 -18 0
19 20 21 22 23 24 25 26 27 0
-19 -20 0
-19 -21 0
-19 -22 0
-19 -23 0
-19 -24 0
-19 -25 0
-19 -26 0
-19 -27 0
-20 -21 0
-20 -22 0
-20 -23 0
-20 -24 0
-20 -25 0
-20 -26 0
-20 -27 0
-21 -22 0
-21 -23 0
-21 -24 0
-21 -25 0
-21 -26 0
-21 -27 0
-22 -23 0
-22 -24 0
-22 -25 0
-22 -26 0
-22 -27 0
-23 -24 0
-23 -25 0
-23 -26 0
-23 -27 0
-24 -25 0
-24 -26 0
-24 -27 0
-25 -26 0
-25 -27 0
-26 -27 0
28 29 30 31 32 33 34 35 36 0
-28 -29 0
-28 -30 0
-28 -31 0
-28 -32 0
-28 -33 0
-28 -34 0
-28 -35 0
-28 -36 0
-29 -30 0
-29 -31 0
-29 -32 0
-29 -33 0
-29 -34 0
-29 -35 0
-29 -36 0
-30 -31 0
-30 -32 0
-30 -33 0
-30 -34 0
-30 -35 0
-30 -36 0
-31 -32 0
-31 -33 0
-31 -34 0
-31 -35 0
-31 -36 0
-32 -33 0
-32 -34 0
-32 -35 0
-32 -36 0
-33 -34 0
-33 -35 0
-33 -36 0
-34 -35 0
-34 -36 0
-35 -36 0
37 38 39 40 41 42 43 44 45 0
-37 -38 0
-37 -39 0
-37 -40 0
-37 -41 0
-37 -42 0
-37 -43 0
-37 -44 0
-37 -45 0
-38 -39 0
-38 -40 0
-38 -41 0
-38 -42 0
-38 -43 0
-38 -44 0
-38 -45 0
-39 -40 0
-39 -41 0
-39 -42 0
-39 -43 0
-39 -44 0
-39 -45 0
-40 -41 0
-40 -42 0
-40 -43 0
-40 -44 0
-40 -45 0
-41 -42 0
-41 -43 0
-41 -44 0
-41 -45 0
-42 -43 0
-42 -44 0
-42 -45 0
-43 -44 0
-43 -45 0
-44 -45 0
46 47 48 49 50 51 52 53 54 0
-46 -47 0
-46 -48 0
-46 -49 0
-46 -50 0
-46 -51 0
-46 -52 0
-46 -53 0
-46 -54 0
-47 -48 0
-47 -49 0
-47 -50 0
-47 -51 0
-47 -52 0
-47 -53 0
-47 -54 0
-48 -49 0
-48 -50 0
-48 -51 0
-48 -52 0
-48 -53 0
-48 -54 0
-49 -50 0
-49 -51 0
-49 -52 0
-49 -53 0
-49 -54 0
-50 -51 0
-50 -52 0
-50 -53 0
-50 -54 0
-51 -52 0
-51 -53 0
-51 -54 0
-52 -53 0
-52 -54 0
-53 -54 0
55 56 57 58 59 60 61 62 63 0
-55 -56 0
-55 -57 0
-55 -58 0
-55 -59 0
-55 -60 0
-55 -61 0
-55 -62 0
-55 -63 0
-56 -57 0
-56 -58 0
-56 -59 0
-56 -60 0
-56 -61 0
-56 -62 0
-56 -63 0
-57 -58 0
-57 -59 0
-57 -60 0
-57 -61 0
-57 -62 0
-57 -63 0
-58 -59 0
-58 -60 0
-58 -61 0
-58 -62 0
-58 -63 0
-59 -60 0
-59 -61 0
-59 -62 0
-59 -63 0
-60 -61 0
-60 -62 0
-60 -63 0
-61 -62 0
-61 -63 0
-62 -63 0
64 65 66 67 68 69 70 71 72 0
-64 -65 0
-64 -66 0
-64 -67 0
-64 -68 0
-64 -69 0
-64 -70 0
-64 -71 0
-64 -72 0
-65 -66 0
-65 -67 0
-65 -68 0
-65 -69 0
-65 -70 0
-65 -71 0
-65 -72 0
-66 -67 0
-66 -68 0
-66 -69 0
-66 -70 0
-66 -71 0
-66 -72 0
-67 -68 0
-67 -69 0
-67 -70 0
-67 -71 0
-67 -72 0
-68 -69 0
-68 -70 0
-68 -71 0
-68 -72 0
-69 -70 0
-69 -71 0
-69 -72 0
-70 -71 0
-70 -72 0
-71 -72 0
73 74 75 76 77 78 79 80 81 0
-73 -74 0
-73 -75 0
-73 -76 0
-73 -77 0
-73 -78 0
-73 -79 0
-73 -80 0
-73 -81 0
-74 -75 0
-74 -76 0
-74 -77 0
-74 -78 0
-74 -79 0
-74 -80 0
-74 -81 0
-75 -76 0
-75 -77 0
-75 -78 0
-75 -79 0
-75 -80 0
-75 -81 0
-76 -77 0
-76 -78 0
-76 -79 0
-76 -80 0
-76 -81 0
-77 -78 0
-77 -79 0
-77 -80 0
-77 -81 0
-78 -79 0
-78 -80 0
-78 -81 0
-79 -80 0
-79 -81 0
-80 -81 0
82 83 84 85 86 87 88 89 90 0
-82 -83 0
-82 -84 0
-82 -85 0
-82 -86 0
-82 -87 0
-82 -88 0
-82 -89 0
-82 -90 0
-83 -84 0
-83 -85 0
-83 -86 0
-83 -87 0
-83 -88 0
-83 -89 0
-83 -90 0
-84 -85 0
-84 -86 0
-84 -87 0
-84 -88 0
-84 -89 0
-84 -90 0
-85 -86 0
-85 -87 0
-85 -88 0
-85 -89 0
-85 -90 0
-86 -87 0
-86 -88 0
-86 -89 0
-86 -90 0
-87 -88 0
-87 -89 0
-87 -90 0
-88 -89 0
-88 -90 0
-89 -90 0
91 92 93 94 95 96 97 98 99 0
-91 -92 0
-91 -93 0
-91 -94 0
-91 -95 0
-91 -96 0
-91 -97 0
-91 -98 0
-91 -99 0
-92 -93 0
-92 -94 0
-92 -95 0
-92 -96 0
-92 -97 0
-92 -98 0
-92 -99 0
-93 -94 0
-93 -95 0
-93 -96 0
-93 -97 0
-93 -98 0
-93 -99 0
-94 -95 0
-94 -96 0
-94 -97 0
-94 -98 0
-94 -99 0
-95 -96 0
-95 -97 0
-95 -98 0
-95 -99 0
-96 -97 0
-96 -98 0
-96 -99 0
-97 -98 0
-97 -99 0
-98 -99 0
100 101 102 103 104 105 106 107 108 0
-100 -101 0
-100 -102 0
-100 -103 0
-100 -104 0
-100 -105 0
-100 -106 0
-100 -107 0
-100 -108 0
-101 -102 0
-101 -103 0
-101 -104 0
-101 -105 0
-101 -106 0
-101 -107 0
-101 -108 0
-102 -103 0
-102 -104 0
-102 -105 0
-102 -106 0
-102 -107 0
-102 -108 0
-103 -104 0
-103 -105 0
-103 -106 0
-103 -107 0
-103 -108 0
-104 -105 0
-104 -106 0
-104 -107 0
-104 -108 0
-105 -106 0
-105 -107 0
-105 -108 0
-106 -107 0
-106 -108 0
-107 -108 0
-1 -10 0
-2 -11 0
-3 -12 0
-4 -13 0
-5 -14 0
-6 -15 0
-7 -16 0
-8 -17 0
-9 -18 0
-19 -28 0
-19 -37 0
-19 -46 0
-28 -37 0
-28 -46 0
-37 -46 0
-20 -29 0
-20 -38 0
-20 -47 0
-29 -38 0
-29 -47 0
-38 -47 0
-21 -30 0
-21 -39 0
-21 -48 0
-30 -39 0
-30 -48 0
-39 -48 0
-22 -31 0
-22 -40 0
-22 -49 0
-31 -40 0
-31 -49 0
-40 -49 0
-23 -32 0
-23 -41 0
-23 -50 0
-32 -41 0
-32 -50 0
-41 -50 0
-24 -33 0
-24 -42 0
-24 -51 0
-33 -42 0
-33 -51 0
-42 -51 0
-25 -34 0
-25 -43 0
-25 -52 0
-34 -43 0
-34 -52 0
-43 -52 0
-26 -35 0
-26 -44 0
-26 -53 0
-35 -44 0
-35 -53 0
-44 -53 0
-27 -36 0
-27 -45 0
-27 -54 0
-36 -45 0
-36 -54 0
-45 -54 0
-55 -64 0
-55 -73 0
-55 -82 0
-64 -73 0
-64 -82 0
-73 -82 0
-56 -65 0
-56 -74 0
-56 -83 0
-65 -74 0
-65 -83 0
-74 -83 0
-57 -66 0
-57 -75 0
-57 -84 0
-66 -75 0
-66 -84 0
-75 -84 0
-58 -67 0
-58 -76 0
-58 -85 0
-67 -76 0
-67 -85 0
-76 -85 0
-59 -68 0
-59 -77 0
-59 -86 0
-68 -77 0
-68 -86 0
-77 -86 0
-60 -69 0
-60 -78 0
-60 -87 0
-69 -78 0
-69 -87 0
-78 -87 0
-61 -70 0
-61 -79 0
-61 -88 0
-70 -79 0
-70 -88 0
-79 -88 0
-62 -71 0
-62 -80 0
-62 -89 0
-71 -80 0
-71 -89 0
-80 -89 0
-63 -72 0
-63 -81 0
-63 -90 0
-72 -81 0
-72 -90 0
-81 -90 0
-91 -100 0
-92 -101 0
-93 -102 0
-94 -103 0
-95 -104 0
-96 -105 0
-97 -106 0
-98 -107 0
-99 -108 0
-19 -55 0
-20 -56 0
-21 -57 0
-22 -58 0
-23 -59 0
-24 -60 0
-25 -61 0
-26 -62 0
-27 -63 0
-1 -28 0
-1 -64 0
-1 -91 0
-28 -64 0
-28 -91 0
-64 -91 0
-2 -29 0
-2 -65 0
-2 -92 0
-29 -65 0
-29 -92 0
-65 -92 0
-3 -30 0
-3 -66 0
-3 -93 0
-30 -66 0
-30 -93 0
-66 -93 0
-4 -31 0
-4 -67 0
-4 -94 0
-31 -67 0
-31 -94 0
-67 -94 0
-5 -32 0
-5 -68 0
-5 -95 0
-32 -68 0
-32 -95 0
-68 -95 0
-6 -33 0
-6 -69 0
-6 -96 0
-33 -69 0
-33 -96 0
-69 -96 0
-7 -34 0
-7 -70 0
-7 -97 0
-34 -70 0
-34 -97 0
-70 -97 0
-8 -35 0
-8 -71 0
-8 -98 0
-35 -71 0
-35 -98 0
-71 -98 0
-9 -36 0
-9 -72 0
-9 -99 0
-36 -72 0
-36 -99 0
-72 -99 0
-10 -37 0
-10 -73 0
-10 -100 0
-37 -73 0
-37 -100 0
-73 -100 0
-11 -38 0
-11 -74 0
-11 -101 0
-38 -74 0
-38 -101 0
-74 -101 0
-12 -39 0
-12 -75 0
-12 -102 0
-39 -75 0
-39 -102 0
-75 -102 0
-13 -40 0
-13 -76 0
-13 -103 0
-40 -76 0
-40 -103 0
-76 -103 0
-14 -41 0
-14 -77 0
-14 -104 0
-41 -77 0
-41 -104 0
-77 -104 0
-15 -42 0
-15 -78 0
-15 -105 0
-42 -78 0
-42 -105 0
-78 -105 0
-16 -43 0
-16 -79 0
-16 -106 0
-43 -79 0
-43 -106 0
-79 -106 0
-17 -44 0
-17 -80 0
-17 -107 0
-44 -80 0
-44 -107 0
-80 -107 0
-18 -45 0
-18 -81 0
-18 -108 0
-45 -81 0
-45 -108 0
-81 -108 0
-46 -82 0
-47 -83 0
-48 -84 0
-49 -85 0
-50 -86 0
-51 -87 0
-52 -88 0
-53 -89 0
-54 -90 0
109 -1 0
109 -10 0
-109 1 10 0
110 -2 0
110 -11 0
-110 2 11 0
111 -3 0
111 -12 0
-111 3 12 0
112 -4 0
112 -13 0
-112 4 13 0
113 -5 0
113 -14 0
-113 5 14 0
114 -6 0
114 -15 0
-114 6 15 0
115 -7 0
115 -16 0
-115 7 16 0
116 -8 0
116 -17 0
-116 8 17 0
117 -9 0
117 -18 0
-117 9 18 0
118 -19 0
118 -28 0
118 -37 0
118 -46 0
-118 19 28 37 46 0
119 -20 0
119 -29 0
119 -38 0
119 -47 0
-119 20 29 38 47 0
120 -21 0
120 -30 0
120 -39 0
120 -48 0
-120 21 30 39 48 0
121 -22 0
121 -31 0
121 -40 0
121 -49 0
-121 22 31 40 49 0
122 -23 0
122 -32 0
122 -41 0
122 -50 0
-122 23 32 41 50 0
123 -24 0
123 -33 0
123 -42 0
123 -51 0
-123 24 33 42 51 0
124 -25 0
124 -34 0
124 -43 0
124 -52 0
-124 25 34 43 52 0
125 -26 0
125 -35 0
125 -44 0
125 -53 0
-125 26 35 44 53 0
126 -27 0
126 -36 0
126 -45 0
126 -54 0
-126 27 36 45 54 0
127 -55 0
127 -64 0
127 -73 0
127 -82 0
-127 55 64 73 82 0
128 -56 0
128 -65 0
128 -74 0
128 -83 0
-128 56 65 74 83 0
129 -57 0
129 -66 0
129 -75 0
129 -84 0
-129 57 66 75 84 0
130 -58 0
130 -67 0
130 -76 0
130 -85 0
-130 58 67 76 85 0
131 -59 0
131 -68 0
131 -77 0
131 -86 0
-131 59 68 77 86 0
132 -60 0
132 -69 0
132 -78 0
132 -87 0
-132 60 69 78 87 0
133 -61 0
133 -70 0
133 -79 0
133 -88 0
-133 61 70 79 88 0
134 -62 0
134 -71 0
134 -80 0
134 -89 0
-134 62 71 80 89 0
135 -63 0
135 -72 0
135 -81 0
135 -90 0
-135 63 72 81 90 0
136 -91 0
136 -100 0
-136 91 100 0
137 -92 0
137 -101 0
-137 92 101 0
138 -93 0
138 -102 0
-138 93 102 0
139 -94 0
139 -103 0
-139 94 103 0
140 -95 0
140 -104 0
-140 95 104 0
141 -96 0
141 -105 0
-141 96 105 0
142 -97 0
142 -106 0
-142 97 106 0
143 -98 0
143 -107 0
-143 98 107 0
144 -99 0
144 -108 0
-144 99 108 0
145 -19 0
145 -55 0
-145 19 55 0
146 -20 0
146 -56 0
-146 20 56 0
147 -21 0
147 -57 0
-147 21 57 0
148 -22 0
148 -58 0
-148 22 58 0
149 -23 0
149 -59 0
-149 23 59 0
150 -24 0
150 -60 0
-150 24 60 0
151 -25 0
151 -61 0
-151 25 61 0
152 -26 0
152 -62 0
-152 26 62 0
153 -27 0
153 -63 0
-153 27 63 0
154 -1 0
154 -28 0
154 -64 0
154 -91 0
-154 1 28 64 91 0
155 -2 0
155 -29 0
155 -65 0
155 -92 0
-155 2 29 65 92 0
156 -3 0
156 -30 0
156 -66 0
156 -93 0
-156 3 30 66 93 0
157 -4 0
157 -31 0
157 -67 0
157 -94 0
-157 4 31 67 94 0
158 -5 0
158 -32 0
158 -68 0
158 -95 0
-158 5 32 68 95 0
159 -6 0
159 -33 0
159 -69 0
159 -96 0
-159 6 33 69 96 0
160 -7 0
160 -34 0
160 -70 0
160 -97 0
-160 7 34 70 97 0
161 -8 0
161 -35 0
161 -71 0
161 -98 0
-161 8 35 71 98 0
162 -9 0
162 -36 0
162 -72 0
162 -99 0
-162 9 36 72 99 0
163 -10 0
163 -37 0
163 -73 0
163 -100 0
-163 10 37 73 100 0
164 -11 0
164 -38 0
164 -74 0
164 -101 0
-164 11 38 74 101 0
165 -12 0
165 -39 0
165 -75 0
165 -102 0
-165 12 39 75 102 0
166 -13 0
166 -40 0
166 -76 0
166 -103 0
-166 13 40 76 103 0
167 -14 0
167 -41 0
167 -77 0
167 -104 0
-167 14 41 77 104 0
168 -15 0
168 -42 0
168 -78 0
168 -105 0
-168 15 42 78 105 0
169 -16 0
169 -43 0
169 -79 0
169 -106 0
-169 16 43 79 106 0
170 -17 0
170 -44 0
170 -80 0
170 -107 0
-170 17 44 80 107 0
171 -18 0
171 -45 0
171 -81 0
171 -108 0
-171 18 45 81 108 0
172 -46 0
172 -82 0
-172 46 82 0
173 -47 0
173 -83 0
-173 47 83 0
174 -48 0
174 -84 0
-174 48 84 0
175 -49 0
175 -85 0
-175 49 85 0
176 -50 0
176 -86 0
-176 50 86 0
177 -51 0
177 -87 0
-177 51 87 0
178 -52 0
178 -88 0
-178 52 88 0
179 -53 0
179 -89 0
-179 53 89 0
180 -54 0
180 -90 0
-180 54 90 0
181 -109 -115 0
-181 109 0
-181 115 0
182 -110 -114 0
-182 110 0
-182 114 0
183 -111 -113 0
-183 111 0
-183 113 0
181 182 183 0
184 -118 -119 -120 -125 0
-184 118 0
-184 119 0
-184 120 0
-184 125 0
185 -118 -119 -121 -124 0
-185 118 0
-185 119 0
-185 121 0
-185 124 0
186 -118 -119 -122 -123 0
-186 118 0
-186 119 0
-186 122 0
-186 123 0
187 -118 -120 -121 -123 0
-187 118 0
-187 120 0
-187 121 0
-187 123 0
188 -119 -120 -121 -122 0
-188 119 0
-188 120 0
-188 121 0
-188 122 0
184 185 186 187 188 0
189 -127 -132 -134 -135 0
-189 127 0
-189 132 0
-189 134 0
-189 135 0
190 -128 -131 -134 -135 0
-190 128 0
-190 131 0
-190 134 0
-190 135 0
191 -128 -132 -133 -135 0
-191 128 0
-191 132 0
-191 133 0
-191 135 0
192 -129 -130 -134 -135 0
-192 129 0
-192 130 0
-192 134 0
-192 135 0
193 -129 -131 -133 -135 0
-193 129 0
-193 131 0
-193 133 0
-193 135 0
194 -129 -132 -133 -134 0
-194 129 0
-194 132 0
-194 133 0
-194 134 0
195 -130 -131 -132 -135 0
-195 130 0
-195 131 0
-195 132 0
-195 135 0
196 -130 -131 -133 -134 0
-196 130 0
-196 131 0
-196 133 0
-196 134 0
189 190 191 192 193 194 195 196 0
197 -142 -144 0
-197 142 0
-197 144 0
197 0
198 -145 -149 0
-198 145 0
-198 149 0
199 -146 -148 0
-199 146 0
-199 148 0
198 199 0
200 -154 -155 -156 -160 0
-200 154 0
-200 155 0
-200 156 0
-200 160 0
201 -154 -155 -157 -159 0
-201 154 0
-201 155 0
-201 157 0
-201 159 0
202 -154 -156 -157 -158 0
-202 154 0
-202 156 0
-202 157 0
-202 158 0
200 201 202 0
203 -165 -169 -170 -171 0
-203 165 0
-203 169 0
-203 170 0
-203 171 0
204 -166 -168 -170 -171 0
-204 166 0
-204 168 0
-204 170 0
-204 171 0
205 -167 -168 -169 -171 0
-205 167 0
-205 168 0
-205 169 0
-205 171 0
203 204 205 0
206 -178 -180 0
-206 178 0
-206 180 0
206 0
